minizinc/sudoku_problems2/sudoku_p21.dzn
%
% sudoku_p21.dzn
% See http://www.hakank.org/minizinc/sudoku_gcc.mzn
% 
% This problem is problem 21 from
% Gecode's sudoku.cpp
% http://www.gecode.org/gecode-doc-latest/sudoku_8cpp-source.html
% 
x = array2d(1..n, 1..n, [   
% 21
  _,  _,  6, 15,  _,  _,  _,  _,  _,  5,  _,  _,  3,  _,  _,  _,  _,  _, 17,  _,  _, 10,  _, 22,  2,
  _,  _,  _,  _,  _,  3,  _,  _,  _,  _, 18,  8,  _, 10,  _, 22, 12,  _, 20, 19,  _, 21, 23, 16,  _,
  _, 18,  _,  7, 23,  _,  _, 20,  _,  2,  _,  _,  6,  _,  _,  _,  3, 13,  _,  _, 11,  _, 24,  8,  5,
  _,  3, 10,  _, 25, 15,  _, 13,  8, 24, 11, 20,  7,  _,  2,  _,  _,  _,  _, 21,  6,  _,  9, 17,  4,
  _, 20,  _,  _, 12, 11, 22, 21,  _,  _,  _,  _,  _, 24,  _, 10,  8,  _, 16,  4,  _, 13,  _,  _,  _,
  1,  _,  4,  _, 10, 16, 21,  _,  _, 22,  5,  _,  _, 15,  _, 24,  _,  9,  _,  _,  _,  _, 25,  2,  _,
  _,  _, 18,  _,  _,  _,  _,  _,  _,  _,  _,  _,  8,  _,  _,  _,  _,  _,  _, 23,  4, 14,  _,  _,  _,
 19,  _, 12,  8,  _,  1,  _,  6,  _,  3,  _, 21, 24,  _, 20,  7, 10, 16,  2, 25,  9,  _, 17,  _,  _,
  _,  2,  _,  3, 11, 17,  _,  _,  9,  _, 10,  _,  _,  _, 16,  _,  _,  _,  _,  _,  _, 24,  _,  _, 21,
  _, 17,  _,  _, 22,  8,  _, 19,  _,  _,  _,  _,  _, 23, 18,  1,  _, 21, 14, 15,  _,  _,  _,  _, 11,
 18,  5,  _,  _,  4,  _,  _,  _,  _,  _, 16,  _,  2,  7,  _,  _, 20,  _,  _,  3,  _, 22,  _,  _, 17,
 25,  _,  _, 14,  _,  _, 18,  _, 10,  _,  _,  3, 11,  _,  8,  _,  _,  _,  _, 16,  _,  2,  _,  _,  _,
 10, 19,  _,  _,  _,  _,  _,  _, 23, 15, 20,  _, 18,  _, 24,  9,  4,  7,  6,  _,  _, 16,  _,  1,  _,
  _,  9,  7,  6,  _,  _,  _, 14,  3, 17,  _,  _,  _,  _, 22,  5,  _, 15,  _,  _,  _,  _,  _,  _, 24,
  _, 15,  _, 22,  3,  _,  5,  _, 16, 20, 12,  4,  _, 17, 19,  _, 23,  _,  _,  _,  _,  _, 18, 13,  7,
  _,  _, 21,  1, 20,  _,  _,  9,  _, 19,  3,  7,  _, 18, 13,  _,  _, 11,  _,  _, 14,  6,  _,  _,  _,
  _,  8,  2, 24, 17,  _,  1,  _,  _, 25, 23, 22, 21,  _,  _,  _, 14,  _,  _, 12,  _,  _,  _, 19,  _,
  _,  _,  _,  _, 19, 21, 15, 23,  _, 11,  _,  _, 16,  _,  _,  6, 22,  _,  _, 17,  _,  _, 13,  _,  9,
  _,  _,  _, 12,  _, 10,  _,  _,  _, 18,  _,  6,  _,  _,  _,  _,  _,  _,  _, 20,  _,  5,  _,  _,  _,
 14,  _, 16,  _, 18,  _,  _,  _,  _,  _, 24,  _,  _,  _,  _, 19,  _,  8, 15,  _,  _,  _,  _,  _,  _,
  _,  _, 22,  4,  _,  _,  9,  _, 13,  _,  7,  _, 20,  _, 15, 14,  _,  3, 24,  _,  _,  _,  _,  _,  _,
 17,  _, 23,  _,  _,  _,  _,  _,  1,  4, 14,  _,  _, 11,  3, 21,  _,  _,  8, 18,  _,  _,  _, 10, 16,
 20,  _, 24,  _,  6,  2,  _, 25, 22,  _,  _,  _, 23,  _,  _, 17,  _,  _,  _,  1,  8, 12,  _,  9,  _,
 21, 12,  _,  _,  8,  _,  3,  _,  _,  _,  2,  _,  _,  _, 17,  _, 16,  _,  _,  _, 19,  _,  _,  4, 14,
  _, 11,  _,  _,  9, 23, 20,  _, 14,  _,  _,  _,  _, 12,  6,  _, 25,  _,  4, 13,  _,  7,  1, 24, 18
]);

n = 25;


